
  19    0


   0  12 2 3 4 5 6 7 8 9 15 16 17 18 
  10   3 14 11 10 
   2   2 13 12 
   1   2 11 10 
   3   2 11 10 
   6   1 12 
   8   1 11 
   7   1 10 
   1   1 10 
   1   1 19
  10   1 19
   5   1 19
   7   1 19
   5   1 19
   3   1 19
   6   1 19
   1   1 19
   3   1 19
   0   0 
